Selected objective sense:  MINIMIZE
Selected objective  name:  OBJ
Selected RHS        name:  RHS1
Selected bound      name:  BND1
CPXPARAM_Preprocessing_Presolve                  0
CPXPARAM_LPMethod                                4
CPXPARAM_Threads                                 1
CPXPARAM_SolutionType                            2
CPXPARAM_TimeLimit                               3600
Tried aggregator 0 times.
DUAL formed by presolve
Reduced presolve eliminated 1136 rows and 1232 columns.
Reduced LP has 27584 rows, 7152 columns, and 1197154 nonzeros.
Presolve time = 0.47 sec. (337.43 ticks)
Parallel mode: none, using 1 thread for barrier

***NOTE: Found 48 dense columns.

Number of nonzeros in lower triangle of A*A' = 48567
Using Approximate Minimum Degree ordering
Total time for automatic ordering = 0.01 sec. (4.58 ticks)
Summary statistics for Cholesky factor:
  Rows in Factor            = 27632
  Integer space required    = 347242
  Total non-zeros in factor = 1324357
  Total FP ops to factor    = 64576569
 Itn      Primal Obj        Dual Obj  Prim Inf Upper Inf  Dual Inf Inf Ratio
   0  -1.0517231e+07   2.0779920e+08  1.22e+05  0.00e+00  2.76e+07  1.00e+00
   1  -5.9830636e+07   1.5657270e+08  7.41e+04  4.62e-12  2.35e+07  1.68e-03
   2  -3.2224937e+07   1.1433857e+08  2.81e+04  5.83e-12  1.77e+07  3.70e-04
   3  -1.7234477e+07   5.8439318e+07  8.56e+03  3.74e-12  9.81e+06  4.10e-04
   4  -1.5193044e+07   9.3824771e+06  6.47e+03  2.03e-12  2.70e+06  1.95e-03
   5  -4.5073874e+06   2.4020162e+05  1.24e+03  2.15e-12  5.69e+05  2.39e-02
   6  -3.9677156e+06   7.3528699e+05  1.13e+03  6.45e-12  3.26e+05  1.85e-02
   7  -2.0061751e+06   3.1661048e+05  5.90e+02  4.71e-12  1.04e+05  2.88e-02
   8  -4.2646147e+05   3.7425248e+04  1.18e+02  2.10e-12  2.17e+04  2.08e-01
   9  -1.1002930e+05   2.7915506e+04  3.53e+01  1.92e-12  5.52e+03  7.71e-01
  10  -2.8846433e+04   2.5351360e+04  1.39e+01  1.87e-12  1.96e+03  8.17e-01
  11   1.4972875e+04   2.4878835e+04  2.56e+00  1.00e-12  1.27e+02  1.14e+01
  12   2.1934679e+04   2.4657582e+04  7.08e-01  6.67e-12  2.86e+01  2.59e+01
  13   2.3330041e+04   2.4538432e+04  2.68e-01  1.84e-12  2.15e+01  3.03e+01
  14   2.3705227e+04   2.4450121e+04  1.60e-01  2.17e-12  1.45e+01  4.29e+01
  15   2.3868762e+04   2.4398137e+04  1.12e-01  1.83e-12  1.09e+01  5.62e+01
  16   2.4062862e+04   2.4351674e+04  5.24e-02  5.50e-12  7.79e+00  7.79e+01
  17   2.4137961e+04   2.4309150e+04  2.50e-02  1.67e-12  5.51e+00  1.13e+02
  18   2.4168766e+04   2.4280403e+04  1.44e-02  1.83e-12  3.90e+00  1.67e+02
  19   2.4186605e+04   2.4260007e+04  8.67e-03  1.17e-12  2.71e+00  2.48e+02
  20   2.4195703e+04   2.4252127e+04  5.86e-03  2.00e-12  2.24e+00  3.08e+02
  21   2.4203779e+04   2.4244377e+04  3.30e-03  3.84e-12  1.78e+00  3.99e+02
  22   2.4207325e+04   2.4241548e+04  2.21e-03  3.00e-12  1.61e+00  4.47e+02
  23   2.4210398e+04   2.4238785e+04  1.23e-03  3.00e-12  1.45e+00  5.06e+02
  24   2.4212203e+04   2.4238072e+04  5.21e-04  2.84e-12  1.41e+00  5.23e+02
  25   2.4212631e+04   2.4236811e+04  3.76e-04  2.84e-12  1.34e+00  5.57e+02
  26   2.4213500e+04   2.4230734e+04  2.35e-04  5.00e-12  9.65e-01  7.96e+02
  27   2.4213847e+04   2.4229538e+04  1.58e-04  4.00e-12  8.94e-01  8.72e+02
  28   2.4214370e+04   2.4228274e+04  5.81e-05  1.67e-12  8.18e-01  9.67e+02
  29   2.4214645e+04   2.4227783e+04  2.53e-05  7.67e-12  7.88e-01  1.01e+03
  30   2.4214703e+04   2.4224031e+04  9.76e-06  6.17e-12  5.61e-01  1.52e+03
  31   2.4215032e+04   2.4222093e+04  3.19e-06  5.00e-12  4.38e-01  2.04e+03
  32   2.4215336e+04   2.4220853e+04  7.04e-07  4.50e-12  3.57e-01  2.59e+03
  33   2.4215530e+04   2.4218849e+04  1.79e-07  5.50e-12  2.21e-01  4.43e+03
  34   2.4215649e+04   2.4217485e+04  8.66e-08  3.34e-12  1.23e-01  8.21e+03
  35   2.4215672e+04   2.4216895e+04  5.44e-08  1.50e-12  8.24e-02  1.33e+04
  36   2.4215736e+04   2.4216356e+04  1.47e-08  6.84e-12  4.33e-02  2.88e+04
  37   2.4215785e+04   2.4216107e+04  1.16e-08  4.50e-12  2.36e-02  5.47e+04
  38   2.4215804e+04   2.4215946e+04  3.12e-07  6.17e-12  1.06e-02  1.27e+05
  39   2.4215809e+04   2.4215860e+04  6.12e-06  8.17e-12  3.40e-03  4.02e+05
  40   2.4215814e+04   2.4215828e+04  4.84e-05  3.67e-12  7.57e-04  1.94e+06
  41   2.4215817e+04   2.4215822e+04  2.77e-04  1.67e-12  2.21e-04  6.59e+06
  42   2.4215819e+04   2.4215820e+04  3.04e-04  1.84e-12  8.87e-05  1.58e+07
  43   2.4215819e+04   2.4215820e+04  3.42e-04  3.52e-12  4.16e-05  3.36e+07
  44   2.4215819e+04   2.4215820e+04  4.75e-04  3.01e-12  2.04e-05  6.80e+07
Barrier time = 3.91 sec. (4106.52 ticks)

Total time on 1 threads = 3.91 sec. (4106.52 ticks)
Solve time: 3.90865615
Barrier iterations: 44
